Traveling Salesman Problem/TSP_generados/Aleatorio1620390960_10.tsp
NAME: Aleatorio1620390960_10.tsp
COMMENT: Randomly generated scenario
TYPE: TSP
DIMENSION: 10
EDGE_WEIGHT_TYPE: ATT
NODE_COORD_SECTION
1 34.55 3.32
2 19.76 3.61
3 25.72 36.88
4 3.49 11.59
5 41.61 3.6
6 43.04 35.15
7 23.8 4.02
8 38.73 11.29
9 24.32 9.64
10 6.82 41.81
