Traveling Salesman Problem/TSP_generados/Aleatorio1620390960_10.opt.tour
NAME: Aleatorio1620390960_10.opt.tour
COMMENT: Optimal solution for Aleatorio1620390960_10 (146.71597469745382)
TYPE: TOUR
DIMENSION: 10
TOUR_SECTION
1 5 8 6 3 10 4 2 7 9
-1
EOF
